0 79 60 97 78 63 94 90 88 98 99 74 95 51 51 76 87 97 60 61 78 87 97 76 65 81 59 50 62 51 77 99 73 62 81 87 74 93 57 69 77 68 96 66 73 92 93 65 96 50 84 94 58 92 84 50 53 80 51 81 95 79 80 77 50 69 75 65 98 79 66 92 88 71 83 76 76 81 74 71 67 59 94 58 60 87 98 68 83 83 89 96 74 69 95 61 56 68 81 64 96 81 86 53 65 89 66 68 87 87 69 60 50 83 71 58 